\ Model mip1
\ LP format - for model browsing. Use MPS format to capture full model detail.
Minimize
  71.54455896980937 f(x_0) + 47.51418296380011 f(x_1)
   + 96.29429245361744 f(x_2) + 35.00889343690771 f(x_3)
   + 67.83796882752468 f(x_4) + 57.14128566782297 f(x_5)
   + 86.68486175805214 f(x_6) + 32.51345014618823 f(x_7)
   + 38.14050038527723 f(x_8) + 13.85734285083799 f(x_9)
   + 73.53318055039257 f(x_10) + 97.58724946707035 f(x_11)
   + 29.95866410065216 f(x_12) + 50.06303817439233 f(x_13)
   + 11.13026417182031 f(x_14) + 68.40035293405322 f(x_15)
   + 84.43751477022798 f(x_16) + 33.65862803561258 f(x_17)
   + 57.29173652119724 f(x_18) + 86.15454497046267 f(x_19)
   + 13.34286925090219 f(x_20) + 52.70093721276913 f(x_21)
   + 28.1168377683739 f(x_22) + 86.85706610845841 f(x_23)
   + 77.18557759998751 f(x_24) + 49.40902908001674 f(x_25)
   + 98.47736916244124 f(x_26) + 62.58445677823791 f(x_27)
   + 97.804592834197 f(x_28) + 22.76888895410532 f(x_29)
   + 76.6235886704988 f(x_30) + 60.77797481316537 f(x_31)
   + 26.83952241170788 f(x_32) + 8.927086601074606 f(x_33)
   + 50.35410103848182 f(x_34) + 31.64294043625296 f(x_35)
   + 4.708439424640774 f(x_36) + 12.65946024685159 f(x_37)
   + 60.70572652302128 f(x_38) + 43.59024697466317 f(x_39)
   + 70.15888232877218 f(x_40) + 28.51929089395568 f(x_41)
   + 73.34497079962232 f(x_42) + 2.643311414131676 f(x_43)
   + 57.52309841476709 f(x_44) + 55.19427795683239 f(x_45)
   + 67.37460841961344 f(x_46) + 98.05636297437159 f(x_47)
   + 86.23705340046908 f(x_48) + 54.82118722729244 f(x_49)
   + 92.98638581127942 f(x_50) + 74.33216498813115 f(x_51)
   + 4.651342536243495 f(x_52) + 68.48349628722156 f(x_53)
   + 24.94480200406113 f(x_54) + 39.99623890682204 f(x_55)
   + 31.08875135577729 f(x_56) + 58.54707418162921 f(x_57)
   + 48.81817461811092 f(x_58) + 32.3977796918545 f(x_59)
   + 35.3106768878631 f(x_60) + 10.71001495387122 f(x_61)
   + 44.7140083646378 f(x_62) + 95.47890302701627 f(x_63)
   + 91.7632916335148 f(x_64) + 100.5519823269906 f(x_65)
   + 2.290353986805504 f(x_66) + 82.67064087178092 f(x_67)
   + 44.40712052960471 f(x_68) + 71.11512789134044 f(x_69)
   + 49.9453496089742 f(x_70) + 22.16652752921714 f(x_71)
   + 23.54092645261281 f(x_72) + 89.21317051477408 f(x_73)
   + 79.95878572580568 f(x_74) + 27.23164089867309 f(x_75)
   + 36.69937963994722 f(x_76) + 43.52909191857833 f(x_77)
   + 80.50186910932139 f(x_78) + 41.04541394543536 f(x_79)
   + 75.83543487122962 f(x_80) + 85.98864683757684 f(x_81)
   + 91.18009652808226 f(x_82) + 85.28442856891409 f(x_83)
   + 10.17982986078136 f(x_84) + 74.74633102805066 f(x_85)
   + 90.97038429635924 f(x_86) + 86.60768692512166 f(x_87)
   + 76.28592468391751 f(x_88) + 56.88345101322256 f(x_89)
   + 23.27015214176097 f(x_90) + 42.98619900547313 f(x_91)
   + 8.051564945262001 f(x_92) + 70.42558483788423 f(x_93)
   + 46.58236267462459 f(x_94) + 36.82041784294884 f(x_95)
   + 79.61038954537045 f(x_96) + 98.87118267286742 f(x_97)
   + 96.94345969176433 f(x_98) + 52.49378504935428 f(x_99)
Subject To
 constr_x_0_b=1: x_0 - 5.0001 x_0>0 >= -5
 constr_x_0_b=0: x_0 - 5.0001 x_0>0 <= 0
 constr_x_1_b=1: x_1 - 5.0001 x_1>0 >= -5
 constr_x_1_b=0: x_1 - 5.0001 x_1>0 <= 0
 constr_x_2_b=1: x_2 - 5.0001 x_2>0 >= -5
 constr_x_2_b=0: x_2 - 5.0001 x_2>0 <= 0
 constr_x_3_b=1: x_3 - 5.0001 x_3>0 >= -5
 constr_x_3_b=0: x_3 - 5.0001 x_3>0 <= 0
 constr_x_4_b=1: x_4 - 5.0001 x_4>0 >= -5
 constr_x_4_b=0: x_4 - 5.0001 x_4>0 <= 0
 constr_x_5_b=1: x_5 - 5.0001 x_5>0 >= -5
 constr_x_5_b=0: x_5 - 5.0001 x_5>0 <= 0
 constr_x_6_b=1: x_6 - 5.0001 x_6>0 >= -5
 constr_x_6_b=0: x_6 - 5.0001 x_6>0 <= 0
 constr_x_7_b=1: x_7 - 5.0001 x_7>0 >= -5
 constr_x_7_b=0: x_7 - 5.0001 x_7>0 <= 0
 constr_x_8_b=1: x_8 - 5.0001 x_8>0 >= -5
 constr_x_8_b=0: x_8 - 5.0001 x_8>0 <= 0
 constr_x_9_b=1: x_9 - 5.0001 x_9>0 >= -5
 constr_x_9_b=0: x_9 - 5.0001 x_9>0 <= 0
 constr_x_10_b=1: x_10 - 5.0001 x_10>0 >= -5
 constr_x_10_b=0: x_10 - 5.0001 x_10>0 <= 0
 constr_x_11_b=1: x_11 - 5.0001 x_11>0 >= -5
 constr_x_11_b=0: x_11 - 5.0001 x_11>0 <= 0
 constr_x_12_b=1: x_12 - 5.0001 x_12>0 >= -5
 constr_x_12_b=0: x_12 - 5.0001 x_12>0 <= 0
 constr_x_13_b=1: x_13 - 5.0001 x_13>0 >= -5
 constr_x_13_b=0: x_13 - 5.0001 x_13>0 <= 0
 constr_x_14_b=1: x_14 - 5.0001 x_14>0 >= -5
 constr_x_14_b=0: x_14 - 5.0001 x_14>0 <= 0
 constr_x_15_b=1: x_15 - 5.0001 x_15>0 >= -5
 constr_x_15_b=0: x_15 - 5.0001 x_15>0 <= 0
 constr_x_16_b=1: x_16 - 5.0001 x_16>0 >= -5
 constr_x_16_b=0: x_16 - 5.0001 x_16>0 <= 0
 constr_x_17_b=1: x_17 - 5.0001 x_17>0 >= -5
 constr_x_17_b=0: x_17 - 5.0001 x_17>0 <= 0
 constr_x_18_b=1: x_18 - 5.0001 x_18>0 >= -5
 constr_x_18_b=0: x_18 - 5.0001 x_18>0 <= 0
 constr_x_19_b=1: x_19 - 5.0001 x_19>0 >= -5
 constr_x_19_b=0: x_19 - 5.0001 x_19>0 <= 0
 constr_x_20_b=1: x_20 - 5.0001 x_20>0 >= -5
 constr_x_20_b=0: x_20 - 5.0001 x_20>0 <= 0
 constr_x_21_b=1: x_21 - 5.0001 x_21>0 >= -5
 constr_x_21_b=0: x_21 - 5.0001 x_21>0 <= 0
 constr_x_22_b=1: x_22 - 5.0001 x_22>0 >= -5
 constr_x_22_b=0: x_22 - 5.0001 x_22>0 <= 0
 constr_x_23_b=1: x_23 - 5.0001 x_23>0 >= -5
 constr_x_23_b=0: x_23 - 5.0001 x_23>0 <= 0
 constr_x_24_b=1: x_24 - 5.0001 x_24>0 >= -5
 constr_x_24_b=0: x_24 - 5.0001 x_24>0 <= 0
 constr_x_25_b=1: x_25 - 5.0001 x_25>0 >= -5
 constr_x_25_b=0: x_25 - 5.0001 x_25>0 <= 0
 constr_x_26_b=1: x_26 - 5.0001 x_26>0 >= -5
 constr_x_26_b=0: x_26 - 5.0001 x_26>0 <= 0
 constr_x_27_b=1: x_27 - 5.0001 x_27>0 >= -5
 constr_x_27_b=0: x_27 - 5.0001 x_27>0 <= 0
 constr_x_28_b=1: x_28 - 5.0001 x_28>0 >= -5
 constr_x_28_b=0: x_28 - 5.0001 x_28>0 <= 0
 constr_x_29_b=1: x_29 - 5.0001 x_29>0 >= -5
 constr_x_29_b=0: x_29 - 5.0001 x_29>0 <= 0
 constr_x_30_b=1: x_30 - 5.0001 x_30>0 >= -5
 constr_x_30_b=0: x_30 - 5.0001 x_30>0 <= 0
 constr_x_31_b=1: x_31 - 5.0001 x_31>0 >= -5
 constr_x_31_b=0: x_31 - 5.0001 x_31>0 <= 0
 constr_x_32_b=1: x_32 - 5.0001 x_32>0 >= -5
 constr_x_32_b=0: x_32 - 5.0001 x_32>0 <= 0
 constr_x_33_b=1: x_33 - 5.0001 x_33>0 >= -5
 constr_x_33_b=0: x_33 - 5.0001 x_33>0 <= 0
 constr_x_34_b=1: x_34 - 5.0001 x_34>0 >= -5
 constr_x_34_b=0: x_34 - 5.0001 x_34>0 <= 0
 constr_x_35_b=1: x_35 - 5.0001 x_35>0 >= -5
 constr_x_35_b=0: x_35 - 5.0001 x_35>0 <= 0
 constr_x_36_b=1: x_36 - 5.0001 x_36>0 >= -5
 constr_x_36_b=0: x_36 - 5.0001 x_36>0 <= 0
 constr_x_37_b=1: x_37 - 5.0001 x_37>0 >= -5
 constr_x_37_b=0: x_37 - 5.0001 x_37>0 <= 0
 constr_x_38_b=1: x_38 - 5.0001 x_38>0 >= -5
 constr_x_38_b=0: x_38 - 5.0001 x_38>0 <= 0
 constr_x_39_b=1: x_39 - 5.0001 x_39>0 >= -5
 constr_x_39_b=0: x_39 - 5.0001 x_39>0 <= 0
 constr_x_40_b=1: x_40 - 5.0001 x_40>0 >= -5
 constr_x_40_b=0: x_40 - 5.0001 x_40>0 <= 0
 constr_x_41_b=1: x_41 - 5.0001 x_41>0 >= -5
 constr_x_41_b=0: x_41 - 5.0001 x_41>0 <= 0
 constr_x_42_b=1: x_42 - 5.0001 x_42>0 >= -5
 constr_x_42_b=0: x_42 - 5.0001 x_42>0 <= 0
 constr_x_43_b=1: x_43 - 5.0001 x_43>0 >= -5
 constr_x_43_b=0: x_43 - 5.0001 x_43>0 <= 0
 constr_x_44_b=1: x_44 - 5.0001 x_44>0 >= -5
 constr_x_44_b=0: x_44 - 5.0001 x_44>0 <= 0
 constr_x_45_b=1: x_45 - 5.0001 x_45>0 >= -5
 constr_x_45_b=0: x_45 - 5.0001 x_45>0 <= 0
 constr_x_46_b=1: x_46 - 5.0001 x_46>0 >= -5
 constr_x_46_b=0: x_46 - 5.0001 x_46>0 <= 0
 constr_x_47_b=1: x_47 - 5.0001 x_47>0 >= -5
 constr_x_47_b=0: x_47 - 5.0001 x_47>0 <= 0
 constr_x_48_b=1: x_48 - 5.0001 x_48>0 >= -5
 constr_x_48_b=0: x_48 - 5.0001 x_48>0 <= 0
 constr_x_49_b=1: x_49 - 5.0001 x_49>0 >= -5
 constr_x_49_b=0: x_49 - 5.0001 x_49>0 <= 0
 constr_x_50_b=1: x_50 - 5.0001 x_50>0 >= -5
 constr_x_50_b=0: x_50 - 5.0001 x_50>0 <= 0
 constr_x_51_b=1: x_51 - 5.0001 x_51>0 >= -5
 constr_x_51_b=0: x_51 - 5.0001 x_51>0 <= 0
 constr_x_52_b=1: x_52 - 5.0001 x_52>0 >= -5
 constr_x_52_b=0: x_52 - 5.0001 x_52>0 <= 0
 constr_x_53_b=1: x_53 - 5.0001 x_53>0 >= -5
 constr_x_53_b=0: x_53 - 5.0001 x_53>0 <= 0
 constr_x_54_b=1: x_54 - 5.0001 x_54>0 >= -5
 constr_x_54_b=0: x_54 - 5.0001 x_54>0 <= 0
 constr_x_55_b=1: x_55 - 5.0001 x_55>0 >= -5
 constr_x_55_b=0: x_55 - 5.0001 x_55>0 <= 0
 constr_x_56_b=1: x_56 - 5.0001 x_56>0 >= -5
 constr_x_56_b=0: x_56 - 5.0001 x_56>0 <= 0
 constr_x_57_b=1: x_57 - 5.0001 x_57>0 >= -5
 constr_x_57_b=0: x_57 - 5.0001 x_57>0 <= 0
 constr_x_58_b=1: x_58 - 5.0001 x_58>0 >= -5
 constr_x_58_b=0: x_58 - 5.0001 x_58>0 <= 0
 constr_x_59_b=1: x_59 - 5.0001 x_59>0 >= -5
 constr_x_59_b=0: x_59 - 5.0001 x_59>0 <= 0
 constr_x_60_b=1: x_60 - 5.0001 x_60>0 >= -5
 constr_x_60_b=0: x_60 - 5.0001 x_60>0 <= 0
 constr_x_61_b=1: x_61 - 5.0001 x_61>0 >= -5
 constr_x_61_b=0: x_61 - 5.0001 x_61>0 <= 0
 constr_x_62_b=1: x_62 - 5.0001 x_62>0 >= -5
 constr_x_62_b=0: x_62 - 5.0001 x_62>0 <= 0
 constr_x_63_b=1: x_63 - 5.0001 x_63>0 >= -5
 constr_x_63_b=0: x_63 - 5.0001 x_63>0 <= 0
 constr_x_64_b=1: x_64 - 5.0001 x_64>0 >= -5
 constr_x_64_b=0: x_64 - 5.0001 x_64>0 <= 0
 constr_x_65_b=1: x_65 - 5.0001 x_65>0 >= -5
 constr_x_65_b=0: x_65 - 5.0001 x_65>0 <= 0
 constr_x_66_b=1: x_66 - 5.0001 x_66>0 >= -5
 constr_x_66_b=0: x_66 - 5.0001 x_66>0 <= 0
 constr_x_67_b=1: x_67 - 5.0001 x_67>0 >= -5
 constr_x_67_b=0: x_67 - 5.0001 x_67>0 <= 0
 constr_x_68_b=1: x_68 - 5.0001 x_68>0 >= -5
 constr_x_68_b=0: x_68 - 5.0001 x_68>0 <= 0
 constr_x_69_b=1: x_69 - 5.0001 x_69>0 >= -5
 constr_x_69_b=0: x_69 - 5.0001 x_69>0 <= 0
 constr_x_70_b=1: x_70 - 5.0001 x_70>0 >= -5
 constr_x_70_b=0: x_70 - 5.0001 x_70>0 <= 0
 constr_x_71_b=1: x_71 - 5.0001 x_71>0 >= -5
 constr_x_71_b=0: x_71 - 5.0001 x_71>0 <= 0
 constr_x_72_b=1: x_72 - 5.0001 x_72>0 >= -5
 constr_x_72_b=0: x_72 - 5.0001 x_72>0 <= 0
 constr_x_73_b=1: x_73 - 5.0001 x_73>0 >= -5
 constr_x_73_b=0: x_73 - 5.0001 x_73>0 <= 0
 constr_x_74_b=1: x_74 - 5.0001 x_74>0 >= -5
 constr_x_74_b=0: x_74 - 5.0001 x_74>0 <= 0
 constr_x_75_b=1: x_75 - 5.0001 x_75>0 >= -5
 constr_x_75_b=0: x_75 - 5.0001 x_75>0 <= 0
 constr_x_76_b=1: x_76 - 5.0001 x_76>0 >= -5
 constr_x_76_b=0: x_76 - 5.0001 x_76>0 <= 0
 constr_x_77_b=1: x_77 - 5.0001 x_77>0 >= -5
 constr_x_77_b=0: x_77 - 5.0001 x_77>0 <= 0
 constr_x_78_b=1: x_78 - 5.0001 x_78>0 >= -5
 constr_x_78_b=0: x_78 - 5.0001 x_78>0 <= 0
 constr_x_79_b=1: x_79 - 5.0001 x_79>0 >= -5
 constr_x_79_b=0: x_79 - 5.0001 x_79>0 <= 0
 constr_x_80_b=1: x_80 - 5.0001 x_80>0 >= -5
 constr_x_80_b=0: x_80 - 5.0001 x_80>0 <= 0
 constr_x_81_b=1: x_81 - 5.0001 x_81>0 >= -5
 constr_x_81_b=0: x_81 - 5.0001 x_81>0 <= 0
 constr_x_82_b=1: x_82 - 5.0001 x_82>0 >= -5
 constr_x_82_b=0: x_82 - 5.0001 x_82>0 <= 0
 constr_x_83_b=1: x_83 - 5.0001 x_83>0 >= -5
 constr_x_83_b=0: x_83 - 5.0001 x_83>0 <= 0
 constr_x_84_b=1: x_84 - 5.0001 x_84>0 >= -5
 constr_x_84_b=0: x_84 - 5.0001 x_84>0 <= 0
 constr_x_85_b=1: x_85 - 5.0001 x_85>0 >= -5
 constr_x_85_b=0: x_85 - 5.0001 x_85>0 <= 0
 constr_x_86_b=1: x_86 - 5.0001 x_86>0 >= -5
 constr_x_86_b=0: x_86 - 5.0001 x_86>0 <= 0
 constr_x_87_b=1: x_87 - 5.0001 x_87>0 >= -5
 constr_x_87_b=0: x_87 - 5.0001 x_87>0 <= 0
 constr_x_88_b=1: x_88 - 5.0001 x_88>0 >= -5
 constr_x_88_b=0: x_88 - 5.0001 x_88>0 <= 0
 constr_x_89_b=1: x_89 - 5.0001 x_89>0 >= -5
 constr_x_89_b=0: x_89 - 5.0001 x_89>0 <= 0
 constr_x_90_b=1: x_90 - 5.0001 x_90>0 >= -5
 constr_x_90_b=0: x_90 - 5.0001 x_90>0 <= 0
 constr_x_91_b=1: x_91 - 5.0001 x_91>0 >= -5
 constr_x_91_b=0: x_91 - 5.0001 x_91>0 <= 0
 constr_x_92_b=1: x_92 - 5.0001 x_92>0 >= -5
 constr_x_92_b=0: x_92 - 5.0001 x_92>0 <= 0
 constr_x_93_b=1: x_93 - 5.0001 x_93>0 >= -5
 constr_x_93_b=0: x_93 - 5.0001 x_93>0 <= 0
 constr_x_94_b=1: x_94 - 5.0001 x_94>0 >= -5
 constr_x_94_b=0: x_94 - 5.0001 x_94>0 <= 0
 constr_x_95_b=1: x_95 - 5.0001 x_95>0 >= -5
 constr_x_95_b=0: x_95 - 5.0001 x_95>0 <= 0
 constr_x_96_b=1: x_96 - 5.0001 x_96>0 >= -5
 constr_x_96_b=0: x_96 - 5.0001 x_96>0 <= 0
 constr_x_97_b=1: x_97 - 5.0001 x_97>0 >= -5
 constr_x_97_b=0: x_97 - 5.0001 x_97>0 <= 0
 constr_x_98_b=1: x_98 - 5.0001 x_98>0 >= -5
 constr_x_98_b=0: x_98 - 5.0001 x_98>0 <= 0
 constr_x_99_b=1: x_99 - 5.0001 x_99>0 >= -5
 constr_x_99_b=0: x_99 - 5.0001 x_99>0 <= 0
 R200: x_0 + x_1 + x_2 + x_3 + x_4 + x_5 + x_6 + x_7 + x_8 + x_9 + x_10
   + x_11 + x_12 + x_13 + x_14 + x_15 + x_16 + x_17 + x_18 + x_19 + x_20
   + x_21 + x_22 + x_23 + x_24 + x_25 + x_26 + x_27 + x_28 + x_29 + x_30
   + x_31 + x_32 + x_33 + x_34 + x_35 + x_36 + x_37 + x_38 + x_39 + x_40
   + x_41 + x_42 + x_43 + x_44 + x_45 + x_46 + x_47 + x_48 + x_49 + x_50
   + x_51 + x_52 + x_53 + x_54 + x_55 + x_56 + x_57 + x_58 + x_59 + x_60
   + x_61 + x_62 + x_63 + x_64 + x_65 + x_66 + x_67 + x_68 + x_69 + x_70
   + x_71 + x_72 + x_73 + x_74 + x_75 + x_76 + x_77 + x_78 + x_79 + x_80
   + x_81 + x_82 + x_83 + x_84 + x_85 + x_86 + x_87 + x_88 + x_89 + x_90
   + x_91 + x_92 + x_93 + x_94 + x_95 + x_96 + x_97 + x_98 + x_99 = 5
 constr_f(x_0)_b=1: x_0>0 = 1 -> f(x_0) = 1
 constr_f(x_0)_b=0: x_0>0 = 0 -> - x_0 + f(x_0) = 0
 constr_f(x_1)_b=1: x_1>0 = 1 -> f(x_1) = 1
 constr_f(x_1)_b=0: x_1>0 = 0 -> - x_1 + f(x_1) = 0
 constr_f(x_2)_b=1: x_2>0 = 1 -> f(x_2) = 1
 constr_f(x_2)_b=0: x_2>0 = 0 -> - x_2 + f(x_2) = 0
 constr_f(x_3)_b=1: x_3>0 = 1 -> f(x_3) = 1
 constr_f(x_3)_b=0: x_3>0 = 0 -> - x_3 + f(x_3) = 0
 constr_f(x_4)_b=1: x_4>0 = 1 -> f(x_4) = 1
 constr_f(x_4)_b=0: x_4>0 = 0 -> - x_4 + f(x_4) = 0
 constr_f(x_5)_b=1: x_5>0 = 1 -> f(x_5) = 1
 constr_f(x_5)_b=0: x_5>0 = 0 -> - x_5 + f(x_5) = 0
 constr_f(x_6)_b=1: x_6>0 = 1 -> f(x_6) = 1
 constr_f(x_6)_b=0: x_6>0 = 0 -> - x_6 + f(x_6) = 0
 constr_f(x_7)_b=1: x_7>0 = 1 -> f(x_7) = 1
 constr_f(x_7)_b=0: x_7>0 = 0 -> - x_7 + f(x_7) = 0
 constr_f(x_8)_b=1: x_8>0 = 1 -> f(x_8) = 1
 constr_f(x_8)_b=0: x_8>0 = 0 -> - x_8 + f(x_8) = 0
 constr_f(x_9)_b=1: x_9>0 = 1 -> f(x_9) = 1
 constr_f(x_9)_b=0: x_9>0 = 0 -> - x_9 + f(x_9) = 0
 constr_f(x_10)_b=1: x_10>0 = 1 -> f(x_10) = 1
 constr_f(x_10)_b=0: x_10>0 = 0 -> - x_10 + f(x_10) = 0
 constr_f(x_11)_b=1: x_11>0 = 1 -> f(x_11) = 1
 constr_f(x_11)_b=0: x_11>0 = 0 -> - x_11 + f(x_11) = 0
 constr_f(x_12)_b=1: x_12>0 = 1 -> f(x_12) = 1
 constr_f(x_12)_b=0: x_12>0 = 0 -> - x_12 + f(x_12) = 0
 constr_f(x_13)_b=1: x_13>0 = 1 -> f(x_13) = 1
 constr_f(x_13)_b=0: x_13>0 = 0 -> - x_13 + f(x_13) = 0
 constr_f(x_14)_b=1: x_14>0 = 1 -> f(x_14) = 1
 constr_f(x_14)_b=0: x_14>0 = 0 -> - x_14 + f(x_14) = 0
 constr_f(x_15)_b=1: x_15>0 = 1 -> f(x_15) = 1
 constr_f(x_15)_b=0: x_15>0 = 0 -> - x_15 + f(x_15) = 0
 constr_f(x_16)_b=1: x_16>0 = 1 -> f(x_16) = 1
 constr_f(x_16)_b=0: x_16>0 = 0 -> - x_16 + f(x_16) = 0
 constr_f(x_17)_b=1: x_17>0 = 1 -> f(x_17) = 1
 constr_f(x_17)_b=0: x_17>0 = 0 -> - x_17 + f(x_17) = 0
 constr_f(x_18)_b=1: x_18>0 = 1 -> f(x_18) = 1
 constr_f(x_18)_b=0: x_18>0 = 0 -> - x_18 + f(x_18) = 0
 constr_f(x_19)_b=1: x_19>0 = 1 -> f(x_19) = 1
 constr_f(x_19)_b=0: x_19>0 = 0 -> - x_19 + f(x_19) = 0
 constr_f(x_20)_b=1: x_20>0 = 1 -> f(x_20) = 1
 constr_f(x_20)_b=0: x_20>0 = 0 -> - x_20 + f(x_20) = 0
 constr_f(x_21)_b=1: x_21>0 = 1 -> f(x_21) = 1
 constr_f(x_21)_b=0: x_21>0 = 0 -> - x_21 + f(x_21) = 0
 constr_f(x_22)_b=1: x_22>0 = 1 -> f(x_22) = 1
 constr_f(x_22)_b=0: x_22>0 = 0 -> - x_22 + f(x_22) = 0
 constr_f(x_23)_b=1: x_23>0 = 1 -> f(x_23) = 1
 constr_f(x_23)_b=0: x_23>0 = 0 -> - x_23 + f(x_23) = 0
 constr_f(x_24)_b=1: x_24>0 = 1 -> f(x_24) = 1
 constr_f(x_24)_b=0: x_24>0 = 0 -> - x_24 + f(x_24) = 0
 constr_f(x_25)_b=1: x_25>0 = 1 -> f(x_25) = 1
 constr_f(x_25)_b=0: x_25>0 = 0 -> - x_25 + f(x_25) = 0
 constr_f(x_26)_b=1: x_26>0 = 1 -> f(x_26) = 1
 constr_f(x_26)_b=0: x_26>0 = 0 -> - x_26 + f(x_26) = 0
 constr_f(x_27)_b=1: x_27>0 = 1 -> f(x_27) = 1
 constr_f(x_27)_b=0: x_27>0 = 0 -> - x_27 + f(x_27) = 0
 constr_f(x_28)_b=1: x_28>0 = 1 -> f(x_28) = 1
 constr_f(x_28)_b=0: x_28>0 = 0 -> - x_28 + f(x_28) = 0
 constr_f(x_29)_b=1: x_29>0 = 1 -> f(x_29) = 1
 constr_f(x_29)_b=0: x_29>0 = 0 -> - x_29 + f(x_29) = 0
 constr_f(x_30)_b=1: x_30>0 = 1 -> f(x_30) = 1
 constr_f(x_30)_b=0: x_30>0 = 0 -> - x_30 + f(x_30) = 0
 constr_f(x_31)_b=1: x_31>0 = 1 -> f(x_31) = 1
 constr_f(x_31)_b=0: x_31>0 = 0 -> - x_31 + f(x_31) = 0
 constr_f(x_32)_b=1: x_32>0 = 1 -> f(x_32) = 1
 constr_f(x_32)_b=0: x_32>0 = 0 -> - x_32 + f(x_32) = 0
 constr_f(x_33)_b=1: x_33>0 = 1 -> f(x_33) = 1
 constr_f(x_33)_b=0: x_33>0 = 0 -> - x_33 + f(x_33) = 0
 constr_f(x_34)_b=1: x_34>0 = 1 -> f(x_34) = 1
 constr_f(x_34)_b=0: x_34>0 = 0 -> - x_34 + f(x_34) = 0
 constr_f(x_35)_b=1: x_35>0 = 1 -> f(x_35) = 1
 constr_f(x_35)_b=0: x_35>0 = 0 -> - x_35 + f(x_35) = 0
 constr_f(x_36)_b=1: x_36>0 = 1 -> f(x_36) = 1
 constr_f(x_36)_b=0: x_36>0 = 0 -> - x_36 + f(x_36) = 0
 constr_f(x_37)_b=1: x_37>0 = 1 -> f(x_37) = 1
 constr_f(x_37)_b=0: x_37>0 = 0 -> - x_37 + f(x_37) = 0
 constr_f(x_38)_b=1: x_38>0 = 1 -> f(x_38) = 1
 constr_f(x_38)_b=0: x_38>0 = 0 -> - x_38 + f(x_38) = 0
 constr_f(x_39)_b=1: x_39>0 = 1 -> f(x_39) = 1
 constr_f(x_39)_b=0: x_39>0 = 0 -> - x_39 + f(x_39) = 0
 constr_f(x_40)_b=1: x_40>0 = 1 -> f(x_40) = 1
 constr_f(x_40)_b=0: x_40>0 = 0 -> - x_40 + f(x_40) = 0
 constr_f(x_41)_b=1: x_41>0 = 1 -> f(x_41) = 1
 constr_f(x_41)_b=0: x_41>0 = 0 -> - x_41 + f(x_41) = 0
 constr_f(x_42)_b=1: x_42>0 = 1 -> f(x_42) = 1
 constr_f(x_42)_b=0: x_42>0 = 0 -> - x_42 + f(x_42) = 0
 constr_f(x_43)_b=1: x_43>0 = 1 -> f(x_43) = 1
 constr_f(x_43)_b=0: x_43>0 = 0 -> - x_43 + f(x_43) = 0
 constr_f(x_44)_b=1: x_44>0 = 1 -> f(x_44) = 1
 constr_f(x_44)_b=0: x_44>0 = 0 -> - x_44 + f(x_44) = 0
 constr_f(x_45)_b=1: x_45>0 = 1 -> f(x_45) = 1
 constr_f(x_45)_b=0: x_45>0 = 0 -> - x_45 + f(x_45) = 0
 constr_f(x_46)_b=1: x_46>0 = 1 -> f(x_46) = 1
 constr_f(x_46)_b=0: x_46>0 = 0 -> - x_46 + f(x_46) = 0
 constr_f(x_47)_b=1: x_47>0 = 1 -> f(x_47) = 1
 constr_f(x_47)_b=0: x_47>0 = 0 -> - x_47 + f(x_47) = 0
 constr_f(x_48)_b=1: x_48>0 = 1 -> f(x_48) = 1
 constr_f(x_48)_b=0: x_48>0 = 0 -> - x_48 + f(x_48) = 0
 constr_f(x_49)_b=1: x_49>0 = 1 -> f(x_49) = 1
 constr_f(x_49)_b=0: x_49>0 = 0 -> - x_49 + f(x_49) = 0
 constr_f(x_50)_b=1: x_50>0 = 1 -> f(x_50) = 1
 constr_f(x_50)_b=0: x_50>0 = 0 -> - x_50 + f(x_50) = 0
 constr_f(x_51)_b=1: x_51>0 = 1 -> f(x_51) = 1
 constr_f(x_51)_b=0: x_51>0 = 0 -> - x_51 + f(x_51) = 0
 constr_f(x_52)_b=1: x_52>0 = 1 -> f(x_52) = 1
 constr_f(x_52)_b=0: x_52>0 = 0 -> - x_52 + f(x_52) = 0
 constr_f(x_53)_b=1: x_53>0 = 1 -> f(x_53) = 1
 constr_f(x_53)_b=0: x_53>0 = 0 -> - x_53 + f(x_53) = 0
 constr_f(x_54)_b=1: x_54>0 = 1 -> f(x_54) = 1
 constr_f(x_54)_b=0: x_54>0 = 0 -> - x_54 + f(x_54) = 0
 constr_f(x_55)_b=1: x_55>0 = 1 -> f(x_55) = 1
 constr_f(x_55)_b=0: x_55>0 = 0 -> - x_55 + f(x_55) = 0
 constr_f(x_56)_b=1: x_56>0 = 1 -> f(x_56) = 1
 constr_f(x_56)_b=0: x_56>0 = 0 -> - x_56 + f(x_56) = 0
 constr_f(x_57)_b=1: x_57>0 = 1 -> f(x_57) = 1
 constr_f(x_57)_b=0: x_57>0 = 0 -> - x_57 + f(x_57) = 0
 constr_f(x_58)_b=1: x_58>0 = 1 -> f(x_58) = 1
 constr_f(x_58)_b=0: x_58>0 = 0 -> - x_58 + f(x_58) = 0
 constr_f(x_59)_b=1: x_59>0 = 1 -> f(x_59) = 1
 constr_f(x_59)_b=0: x_59>0 = 0 -> - x_59 + f(x_59) = 0
 constr_f(x_60)_b=1: x_60>0 = 1 -> f(x_60) = 1
 constr_f(x_60)_b=0: x_60>0 = 0 -> - x_60 + f(x_60) = 0
 constr_f(x_61)_b=1: x_61>0 = 1 -> f(x_61) = 1
 constr_f(x_61)_b=0: x_61>0 = 0 -> - x_61 + f(x_61) = 0
 constr_f(x_62)_b=1: x_62>0 = 1 -> f(x_62) = 1
 constr_f(x_62)_b=0: x_62>0 = 0 -> - x_62 + f(x_62) = 0
 constr_f(x_63)_b=1: x_63>0 = 1 -> f(x_63) = 1
 constr_f(x_63)_b=0: x_63>0 = 0 -> - x_63 + f(x_63) = 0
 constr_f(x_64)_b=1: x_64>0 = 1 -> f(x_64) = 1
 constr_f(x_64)_b=0: x_64>0 = 0 -> - x_64 + f(x_64) = 0
 constr_f(x_65)_b=1: x_65>0 = 1 -> f(x_65) = 1
 constr_f(x_65)_b=0: x_65>0 = 0 -> - x_65 + f(x_65) = 0
 constr_f(x_66)_b=1: x_66>0 = 1 -> f(x_66) = 1
 constr_f(x_66)_b=0: x_66>0 = 0 -> - x_66 + f(x_66) = 0
 constr_f(x_67)_b=1: x_67>0 = 1 -> f(x_67) = 1
 constr_f(x_67)_b=0: x_67>0 = 0 -> - x_67 + f(x_67) = 0
 constr_f(x_68)_b=1: x_68>0 = 1 -> f(x_68) = 1
 constr_f(x_68)_b=0: x_68>0 = 0 -> - x_68 + f(x_68) = 0
 constr_f(x_69)_b=1: x_69>0 = 1 -> f(x_69) = 1
 constr_f(x_69)_b=0: x_69>0 = 0 -> - x_69 + f(x_69) = 0
 constr_f(x_70)_b=1: x_70>0 = 1 -> f(x_70) = 1
 constr_f(x_70)_b=0: x_70>0 = 0 -> - x_70 + f(x_70) = 0
 constr_f(x_71)_b=1: x_71>0 = 1 -> f(x_71) = 1
 constr_f(x_71)_b=0: x_71>0 = 0 -> - x_71 + f(x_71) = 0
 constr_f(x_72)_b=1: x_72>0 = 1 -> f(x_72) = 1
 constr_f(x_72)_b=0: x_72>0 = 0 -> - x_72 + f(x_72) = 0
 constr_f(x_73)_b=1: x_73>0 = 1 -> f(x_73) = 1
 constr_f(x_73)_b=0: x_73>0 = 0 -> - x_73 + f(x_73) = 0
 constr_f(x_74)_b=1: x_74>0 = 1 -> f(x_74) = 1
 constr_f(x_74)_b=0: x_74>0 = 0 -> - x_74 + f(x_74) = 0
 constr_f(x_75)_b=1: x_75>0 = 1 -> f(x_75) = 1
 constr_f(x_75)_b=0: x_75>0 = 0 -> - x_75 + f(x_75) = 0
 constr_f(x_76)_b=1: x_76>0 = 1 -> f(x_76) = 1
 constr_f(x_76)_b=0: x_76>0 = 0 -> - x_76 + f(x_76) = 0
 constr_f(x_77)_b=1: x_77>0 = 1 -> f(x_77) = 1
 constr_f(x_77)_b=0: x_77>0 = 0 -> - x_77 + f(x_77) = 0
 constr_f(x_78)_b=1: x_78>0 = 1 -> f(x_78) = 1
 constr_f(x_78)_b=0: x_78>0 = 0 -> - x_78 + f(x_78) = 0
 constr_f(x_79)_b=1: x_79>0 = 1 -> f(x_79) = 1
 constr_f(x_79)_b=0: x_79>0 = 0 -> - x_79 + f(x_79) = 0
 constr_f(x_80)_b=1: x_80>0 = 1 -> f(x_80) = 1
 constr_f(x_80)_b=0: x_80>0 = 0 -> - x_80 + f(x_80) = 0
 constr_f(x_81)_b=1: x_81>0 = 1 -> f(x_81) = 1
 constr_f(x_81)_b=0: x_81>0 = 0 -> - x_81 + f(x_81) = 0
 constr_f(x_82)_b=1: x_82>0 = 1 -> f(x_82) = 1
 constr_f(x_82)_b=0: x_82>0 = 0 -> - x_82 + f(x_82) = 0
 constr_f(x_83)_b=1: x_83>0 = 1 -> f(x_83) = 1
 constr_f(x_83)_b=0: x_83>0 = 0 -> - x_83 + f(x_83) = 0
 constr_f(x_84)_b=1: x_84>0 = 1 -> f(x_84) = 1
 constr_f(x_84)_b=0: x_84>0 = 0 -> - x_84 + f(x_84) = 0
 constr_f(x_85)_b=1: x_85>0 = 1 -> f(x_85) = 1
 constr_f(x_85)_b=0: x_85>0 = 0 -> - x_85 + f(x_85) = 0
 constr_f(x_86)_b=1: x_86>0 = 1 -> f(x_86) = 1
 constr_f(x_86)_b=0: x_86>0 = 0 -> - x_86 + f(x_86) = 0
 constr_f(x_87)_b=1: x_87>0 = 1 -> f(x_87) = 1
 constr_f(x_87)_b=0: x_87>0 = 0 -> - x_87 + f(x_87) = 0
 constr_f(x_88)_b=1: x_88>0 = 1 -> f(x_88) = 1
 constr_f(x_88)_b=0: x_88>0 = 0 -> - x_88 + f(x_88) = 0
 constr_f(x_89)_b=1: x_89>0 = 1 -> f(x_89) = 1
 constr_f(x_89)_b=0: x_89>0 = 0 -> - x_89 + f(x_89) = 0
 constr_f(x_90)_b=1: x_90>0 = 1 -> f(x_90) = 1
 constr_f(x_90)_b=0: x_90>0 = 0 -> - x_90 + f(x_90) = 0
 constr_f(x_91)_b=1: x_91>0 = 1 -> f(x_91) = 1
 constr_f(x_91)_b=0: x_91>0 = 0 -> - x_91 + f(x_91) = 0
 constr_f(x_92)_b=1: x_92>0 = 1 -> f(x_92) = 1
 constr_f(x_92)_b=0: x_92>0 = 0 -> - x_92 + f(x_92) = 0
 constr_f(x_93)_b=1: x_93>0 = 1 -> f(x_93) = 1
 constr_f(x_93)_b=0: x_93>0 = 0 -> - x_93 + f(x_93) = 0
 constr_f(x_94)_b=1: x_94>0 = 1 -> f(x_94) = 1
 constr_f(x_94)_b=0: x_94>0 = 0 -> - x_94 + f(x_94) = 0
 constr_f(x_95)_b=1: x_95>0 = 1 -> f(x_95) = 1
 constr_f(x_95)_b=0: x_95>0 = 0 -> - x_95 + f(x_95) = 0
 constr_f(x_96)_b=1: x_96>0 = 1 -> f(x_96) = 1
 constr_f(x_96)_b=0: x_96>0 = 0 -> - x_96 + f(x_96) = 0
 constr_f(x_97)_b=1: x_97>0 = 1 -> f(x_97) = 1
 constr_f(x_97)_b=0: x_97>0 = 0 -> - x_97 + f(x_97) = 0
 constr_f(x_98)_b=1: x_98>0 = 1 -> f(x_98) = 1
 constr_f(x_98)_b=0: x_98>0 = 0 -> - x_98 + f(x_98) = 0
 constr_f(x_99)_b=1: x_99>0 = 1 -> f(x_99) = 1
 constr_f(x_99)_b=0: x_99>0 = 0 -> - x_99 + f(x_99) = 0
Bounds
 x_0 <= 5
 x_1 <= 5
 x_2 <= 5
 x_3 <= 5
 x_4 <= 5
 x_5 <= 5
 x_6 <= 5
 x_7 <= 5
 x_8 <= 5
 x_9 <= 5
 x_10 <= 5
 x_11 <= 5
 x_12 <= 5
 x_13 <= 5
 x_14 <= 5
 x_15 <= 5
 x_16 <= 5
 x_17 <= 5
 x_18 <= 5
 x_19 <= 5
 x_20 <= 5
 x_21 <= 5
 x_22 <= 5
 x_23 <= 5
 x_24 <= 5
 x_25 <= 5
 x_26 <= 5
 x_27 <= 5
 x_28 <= 5
 x_29 <= 5
 x_30 <= 5
 x_31 <= 5
 x_32 <= 5
 x_33 <= 5
 x_34 <= 5
 x_35 <= 5
 x_36 <= 5
 x_37 <= 5
 x_38 <= 5
 x_39 <= 5
 x_40 <= 5
 x_41 <= 5
 x_42 <= 5
 x_43 <= 5
 x_44 <= 5
 x_45 <= 5
 x_46 <= 5
 x_47 <= 5
 x_48 <= 5
 x_49 <= 5
 x_50 <= 5
 x_51 <= 5
 x_52 <= 5
 x_53 <= 5
 x_54 <= 5
 x_55 <= 5
 x_56 <= 5
 x_57 <= 5
 x_58 <= 5
 x_59 <= 5
 x_60 <= 5
 x_61 <= 5
 x_62 <= 5
 x_63 <= 5
 x_64 <= 5
 x_65 <= 5
 x_66 <= 5
 x_67 <= 5
 x_68 <= 5
 x_69 <= 5
 x_70 <= 5
 x_71 <= 5
 x_72 <= 5
 x_73 <= 5
 x_74 <= 5
 x_75 <= 5
 x_76 <= 5
 x_77 <= 5
 x_78 <= 5
 x_79 <= 5
 x_80 <= 5
 x_81 <= 5
 x_82 <= 5
 x_83 <= 5
 x_84 <= 5
 x_85 <= 5
 x_86 <= 5
 x_87 <= 5
 x_88 <= 5
 x_89 <= 5
 x_90 <= 5
 x_91 <= 5
 x_92 <= 5
 x_93 <= 5
 x_94 <= 5
 x_95 <= 5
 x_96 <= 5
 x_97 <= 5
 x_98 <= 5
 x_99 <= 5
Binaries
 x_0>0 x_1>0 x_2>0 x_3>0 x_4>0 x_5>0 x_6>0 x_7>0 x_8>0 x_9>0 x_10>0 x_11>0
 x_12>0 x_13>0 x_14>0 x_15>0 x_16>0 x_17>0 x_18>0 x_19>0 x_20>0 x_21>0
 x_22>0 x_23>0 x_24>0 x_25>0 x_26>0 x_27>0 x_28>0 x_29>0 x_30>0 x_31>0
 x_32>0 x_33>0 x_34>0 x_35>0 x_36>0 x_37>0 x_38>0 x_39>0 x_40>0 x_41>0
 x_42>0 x_43>0 x_44>0 x_45>0 x_46>0 x_47>0 x_48>0 x_49>0 x_50>0 x_51>0
 x_52>0 x_53>0 x_54>0 x_55>0 x_56>0 x_57>0 x_58>0 x_59>0 x_60>0 x_61>0
 x_62>0 x_63>0 x_64>0 x_65>0 x_66>0 x_67>0 x_68>0 x_69>0 x_70>0 x_71>0
 x_72>0 x_73>0 x_74>0 x_75>0 x_76>0 x_77>0 x_78>0 x_79>0 x_80>0 x_81>0
 x_82>0 x_83>0 x_84>0 x_85>0 x_86>0 x_87>0 x_88>0 x_89>0 x_90>0 x_91>0
 x_92>0 x_93>0 x_94>0 x_95>0 x_96>0 x_97>0 x_98>0 x_99>0
Generals
 x_0 x_1 x_2 x_3 x_4 x_5 x_6 x_7 x_8 x_9 x_10 x_11 x_12 x_13 x_14 x_15 x_16
 x_17 x_18 x_19 x_20 x_21 x_22 x_23 x_24 x_25 x_26 x_27 x_28 x_29 x_30 x_31
 x_32 x_33 x_34 x_35 x_36 x_37 x_38 x_39 x_40 x_41 x_42 x_43 x_44 x_45 x_46
 x_47 x_48 x_49 x_50 x_51 x_52 x_53 x_54 x_55 x_56 x_57 x_58 x_59 x_60 x_61
 x_62 x_63 x_64 x_65 x_66 x_67 x_68 x_69 x_70 x_71 x_72 x_73 x_74 x_75 x_76
 x_77 x_78 x_79 x_80 x_81 x_82 x_83 x_84 x_85 x_86 x_87 x_88 x_89 x_90 x_91
 x_92 x_93 x_94 x_95 x_96 x_97 x_98 x_99
End
